db/inputs/258523763256428260106452872509119586.smt2
(set-logic QF_FP)
(declare-const x0 (_ FloatingPoint 11 53))
(declare-const x1 (_ FloatingPoint 11 53))
(declare-const x2 (_ FloatingPoint 11 53))
(declare-const x3 (_ FloatingPoint 11 53))
(declare-const x4 (_ FloatingPoint 11 53))
(declare-const x5 (_ FloatingPoint 11 53))
(declare-const x6 (_ FloatingPoint 11 53))
(declare-const x7 (_ FloatingPoint 11 53))
(declare-const x8 (_ FloatingPoint 11 53))
(declare-const x9 (_ FloatingPoint 11 53))
(declare-const x10 (_ FloatingPoint 11 53))
(declare-const x11 (_ FloatingPoint 11 53))
(declare-const x12 (_ FloatingPoint 11 53))
(declare-const x13 (_ FloatingPoint 11 53))
(declare-const x14 (_ FloatingPoint 11 53))
(declare-const x15 (_ FloatingPoint 11 53))
(declare-const x16 (_ FloatingPoint 11 53))
(declare-const x17 (_ FloatingPoint 11 53))
(declare-const x18 (_ FloatingPoint 11 53))
(declare-const x19 (_ FloatingPoint 11 53))
(declare-const x20 (_ FloatingPoint 11 53))
(declare-const x21 (_ FloatingPoint 11 53))
(declare-const x22 (_ FloatingPoint 11 53))
(declare-const x23 (_ FloatingPoint 11 53))
(declare-const x24 (_ FloatingPoint 11 53))
(assert (fp.lt (fp.neg (fp.sub RNE (fp.sub RNE x21 x5) (fp.neg x20))) (fp.add RNE (fp.add RNE (fp.div RNE x16 x16) (fp.neg x13)) (fp.div RNE (fp.neg x7) (fp.mul RNE x0 x1)))))
(assert (fp.geq (fp.mul RNE (fp.div RNE (fp.div RNE x3 x22) (fp.neg x18)) (fp.neg (fp.sub RNE x19 x4))) (fp.div RNE (fp.add RNE (fp.div RNE x6 x10) (fp.div RNE x23 x17)) (fp.neg (fp.sub RNE x7 x21)))))
(assert (fp.lt (fp.add RNE (fp.neg (fp.add RNE x3 x11)) (fp.sub RNE (fp.neg x19) (fp.neg x18))) (fp.add RNE (fp.add RNE (fp.mul RNE x12 x13) (fp.mul RNE x5 x13)) (fp.neg (fp.div RNE x5 x16)))))
(assert (fp.geq (fp.add RNE (fp.add RNE (fp.mul RNE x16 x14) (fp.add RNE x24 x6)) (fp.div RNE (fp.neg x9) (fp.div RNE x7 x14))) (fp.sub RNE (fp.add RNE (fp.sub RNE x4 x18) (fp.mul RNE x22 x19)) (fp.mul RNE (fp.mul RNE x18 x1) (fp.mul RNE x12 x22)))))
(check-sat)
