db/data/258523763256428260106452872509119586.z3.out
-------------------
2500.340996279
